benchmarks/bfuzz0/326377135259353943189113657980112185.smt2
(set-logic QF_FP)
(declare-const x0 (_ FloatingPoint 8 24))
(declare-const x1 (_ FloatingPoint 8 24))
(declare-const x2 (_ FloatingPoint 8 24))
(declare-const x3 (_ FloatingPoint 8 24))
(declare-const x4 (_ FloatingPoint 8 24))
(declare-const x5 (_ FloatingPoint 8 24))
(declare-const x6 (_ FloatingPoint 8 24))
(declare-const x7 (_ FloatingPoint 8 24))
(declare-const x8 (_ FloatingPoint 8 24))
(declare-const x9 (_ FloatingPoint 8 24))
(declare-const x10 (_ FloatingPoint 8 24))
(declare-const x11 (_ FloatingPoint 8 24))
(declare-const x12 (_ FloatingPoint 8 24))
(declare-const x13 (_ FloatingPoint 8 24))
(assert (fp.gt (fp.sub RNE x11 x10) (fp.sub RNE x12 x2)))
(assert (fp.lt (fp.div RNE x8 x0) (fp.sub RNE x10 x7)))
(assert (fp.geq (fp.mul RNE x4 x2) (fp.neg x11)))
(assert (fp.eq (fp.neg x0) (fp.mul RNE x7 x13)))
(check-sat)
