db/data/326377135259353943189113657980112185.z3.out
sat
-------------------
4.605013125
